data;
param n:=50;
param w:=1 135 2 79 3 -199 4 164 5 -97 6 -222 7 11 8 10 9 -38 10 141 11 2 12 86 13 158 14 41 15 62 16 -26 17 -72 18 239 19 140 20 197 21 221 22 -231 23 -138 24 -33 25 18 26 -238 27 54 28 57 29 -177 30 34 31 220 32 236 33 -81 34 239 35 -50 36 -189 37 -167 38 64 39 -121 40 -80 41 -41 42 176 43 -190 44 -7 45 60 46 -86 47 54 48 -172 49 5 50 -248;
